
The Gurobi software has a limited number of licenses. To request a license or
licenses, add this line

    #SBATCH --licenses=gurobi@slurmdb:1

to your SBATCH script, replacing N with the number of licenses you need. Gurobi
will need one license per process.



Starting CP-SAT solver v9.12.4544
Parameters: log_search_progress: true
Setting number of workers to 36

Initial satisfaction model '': (model_fingerprint: 0x295c7e106e9aae9e)
#Variables: 6'585'999
  - 6'585'999 Booleans in [0,1]
#kBoolAnd: 6'198'945 (#enforced: 6'198'945) (#literals: 18'596'835)
#kBoolOr: 1 (#literals: 375)
#kLinear1: 12'398'099 (#enforced: 12'398'085)
#kLinear2: 3'453'115 (#enforced: 2'235)
#kLinear3: 4'880 (#enforced: 4'530)
#kLinearN: 793'368 (#enforced: 380'055) (#terms: 9'633'720)

Starting presolve at 3.73s
/var/spool/slurmd.spool/job24648235/slurm_script: line 28: 3410639 Killed                  /sw/pkgs/arc/python3.10-anaconda/2023.03/bin/python /home/lemonkey/idQ/py/idQ_expr.py "$J" "$K" "$N" "$p" "$SEED" "$solver"
slurmstepd: error: Detected 1 oom_kill event in StepId=24648235.batch. Some of the step tasks have been OOM Killed.
